Instance name : SB_bar-n100-6
Authors : 
Date : 
Reference 
Solution
Route 1 : 22 43 72 16 93 41 91 47 66 97 28 42 24 19 92 69 74 13 26 63 76 49 78 99 27 77 
Route 2 : 25 38 34 40 90 88 75 8 12 62 21 84 71 6 56 23 73 36 39 58 89 86 
Route 3 : 4 31 54 32 81 29 82 79 1 48 51 7 57 98 9 59 35 33 83 14 85 10 64 60 15 46 65 96 
Route 4 : 20 30 37 70 18 68 87 5 17 2 67 45 80 95 44 55 94 11 3 52 61 50 53 100 
